
;this file is automatically generated: Thu Oct 03 15:15:42 IST 2019

;declarations generated

(declare-fun oclExcludes ( Int Int) Bool)
(declare-fun oclSelect ( Int Bool) Int)
(declare-fun type_e40418d3_8589_450f_83e2_9d45c74262d0_B ( Int) Bool)
(declare-fun type_80745960_dfd9_4e79_a338_a148b474c910_C ( Int) Bool)
(declare-fun Cardinality ( Int) Int)
(declare-fun obj_2d0598f7_bce6_4b9b_a7ed_71ec60fdcd25 ( Int) Int)
(declare-fun type_35eea8e6_d763_41a0_b281_7a75247d4300_A ( Int) Bool)
(declare-fun type_5d285dcf_5bab_4588_b013_51dc3ac8821f_D ( Int) Bool)
(declare-fun container_ ( Int) Int)
(declare-fun oclIncludes ( Int Int) Bool)
(declare-fun aux1 () Int)
(declare-fun aux0 () Int)
(declare-fun aux3 () Int)
(declare-fun aux2 () Int)
(declare-fun aux4 () Int)
(declare-fun weight4 () Int)
(declare-fun weight3 () Int)
(declare-fun ObjAt ( Int Int) Int)
(declare-fun weight2 () Int)
(declare-fun weight1 () Int)
(declare-fun weight0 () Int)

;formula(s) generated
(assert (and (>= aux0 0) (<= aux0 1)))
(assert (or (or (forall ((b Int)) (=> (and ( type_e40418d3_8589_450f_83e2_9d45c74262d0_B b )  ( type_35eea8e6_d763_41a0_b281_7a75247d4300_A b ) ) (forall ((c Int)) (=> (and ( type_80745960_dfd9_4e79_a338_a148b474c910_C c )  ( type_35eea8e6_d763_41a0_b281_7a75247d4300_A c ) ) (not (= ( obj_2d0598f7_bce6_4b9b_a7ed_71ec60fdcd25 b )  ( obj_2d0598f7_bce6_4b9b_a7ed_71ec60fdcd25 c ) ) ))))) (and (= aux0 1) true)) (and (= aux0 0) false)))
(assert (and (=> (= aux0 0) (= weight0 1)) (=> (= aux0 1) (= weight0 0))))
(assert (and (>= aux1 0) (<= aux1 1)))
(assert (and (>= aux2 0) (<= aux2 1)))
(assert (and (>= aux3 0) (<= aux3 1)))
(assert (and (>= aux4 0) (<= aux4 1)))
(assert (or (or (exists ((p Int)) ( type_35eea8e6_d763_41a0_b281_7a75247d4300_A ( obj_2d0598f7_bce6_4b9b_a7ed_71ec60fdcd25 p )  ) ) (and (= aux1 1) true)) (and (= aux1 0) false)))
(assert (and (=> (= aux1 0) (= weight1 1)) (=> (= aux1 1) (= weight1 0))))
(assert (or (or (exists ((p Int)) (and ( type_e40418d3_8589_450f_83e2_9d45c74262d0_B ( obj_2d0598f7_bce6_4b9b_a7ed_71ec60fdcd25 p )  )  ( type_35eea8e6_d763_41a0_b281_7a75247d4300_A ( obj_2d0598f7_bce6_4b9b_a7ed_71ec60fdcd25 p )  ) )) (and (= aux2 1) true)) (and (= aux2 0) false)))
(assert (and (=> (= aux2 0) (= weight2 1)) (=> (= aux2 1) (= weight2 0))))
(assert (or (or (exists ((p Int)) (and ( type_80745960_dfd9_4e79_a338_a148b474c910_C ( obj_2d0598f7_bce6_4b9b_a7ed_71ec60fdcd25 p )  )  ( type_35eea8e6_d763_41a0_b281_7a75247d4300_A ( obj_2d0598f7_bce6_4b9b_a7ed_71ec60fdcd25 p )  ) )) (and (= aux3 1) true)) (and (= aux3 0) false)))
(assert (and (=> (= aux3 0) (= weight3 1)) (=> (= aux3 1) (= weight3 0))))
(assert (or (or (exists ((p Int)) (and (and (and ( type_5d285dcf_5bab_4588_b013_51dc3ac8821f_D ( obj_2d0598f7_bce6_4b9b_a7ed_71ec60fdcd25 p )  )  ( type_35eea8e6_d763_41a0_b281_7a75247d4300_A ( obj_2d0598f7_bce6_4b9b_a7ed_71ec60fdcd25 p )  ) ) ( type_e40418d3_8589_450f_83e2_9d45c74262d0_B ( obj_2d0598f7_bce6_4b9b_a7ed_71ec60fdcd25 p )  ) ) ( type_80745960_dfd9_4e79_a338_a148b474c910_C ( obj_2d0598f7_bce6_4b9b_a7ed_71ec60fdcd25 p )  ) )) (and (= aux4 1) true)) (and (= aux4 0) false)))
(assert (and (=> (= aux4 0) (= weight4 1)) (=> (= aux4 1) (= weight4 0))))
(assert (= (+ (+ (+ (+ weight0 weight1) weight2) weight3) weight4) 4))

(assert (not (and (and (and (and (= weight0 0) (= weight1 1)) (= weight2 1)) (= weight3 1)) (= weight4 1)) ))

(assert (not (and (and (and (and (= weight0 1) (= weight1 1)) (= weight2 1)) (= weight3 1)) (= weight4 0)) ))
